Route #1: 17 40 12
Route #2: 32 44 3 51
Route #3: 6 33 1
Route #4: 22 42 41 43 23
Route #5: 16 49 24 18
Route #6: 50 25 9
Route #7: 39 31 10
Route #8: 38 11
Route #9: 53 14 19
Route #10: 54 13 15 5 29
Route #11: 30 48 21
Route #12: 28 2
Route #13: 47 36 20 37
Route #14: 45 27 52
Route #15: 46 8 35 7
Route #16: 26 34 4
Cost 961